4 3 3 0 9 -1 5 9 -1 -1 
8 1 8 6 -1 3 9 3 2 -1 
9 5 1 -1 2 1 9 5 7 -1 
10 0 3 9 9 0 4 10 5 -1 
-1 7 1 -1 4 4 0 7 7 -1 
1 10 6 10 7 6 4 8 4 -1 
4 2 5 1 0 9 -1 7 3 -1 
4 1 2 9 0 4 9 3 5 -1 
10 0 8 3 3 -1 5 7 8 -1 
2 9 2 5 8 -1 3 4 -1 -1 
